1820904
67 34 19070
34 50 8926
50 38 11004
38 61 8740
61 52 34610
52 36 6554
36 7 53644
7 14 6874
14 57 6904
57 8 1777
8 16 5356
16 26 1445
26 44 8214
44 1 15587
1 47 7938
47 3 7248
3 19 4440
19 64 13332
64 46 23646
46 12 9114
12 53 13536
53 0 18207
0 11 10465
11 31 4813
31 55 1427
55 39 3489
39 4 3130
4 59 7979
59 28 6419
28 24 9940
24 29 1249
29 40 5056
40 5 10602
5 63 32039
63 66 14572
66 37 15200
37 6 28523
6 33 42208
33 54 20835
54 45 30985
45 42 69394
42 10 99066
10 65 13370
65 25 57991
25 22 121765
22 48 4353
48 18 8895
18 41 27461
41 60 10110
60 23 5437
23 2 17954
2 20 17216
20 35 65095
35 58 8563
58 15 10880
15 62 14689
62 27 41601
27 49 10810
49 30 71829
30 21 39447
21 51 46274
51 13 39276
13 56 44799
56 17 27906
17 9 28652
9 32 140980
32 43 185722
43 67 106088
